Route #1: 94 76 67 104 65 91 90 45 21
Route #2: 4 92 16 87 79 51
Route #3: 33 115 74 96 117 50 101 113 103 75
Route #4: 109 93 11 105 80 77 86 62 12 106 111
Route #5: 38 9 13 97 17 43 100
Route #6: 52 70 98 84 110 121 32 15
Route #7: 126 29 119 39 25
Route #8: 73 27 72 127 66 108
Route #9: 102 42 56 41 59 18 30 95
Route #10: 49 3 35 22 34 47 14 7
Route #11: 118 71 128 48
Route #12: 129 37 82 123 116
Route #13: 122 46 23 55 20 8 112 5
Route #14: 88 99 81 69 107 6 124 54 120
Route #15: 89 2 61 58 57 63
Route #16: 24 36 78 26 85 44 31 40
Route #17: 19 60 68 125 10 64
Route #18: 114 83 28 53
